p cnf 53 102
1 0
-3 1 0
-3 2 0
3 -1 -2 0
-4 1 0
-4 3 0
4 -1 -3 0
-5 1 0
-5 4 0
5 -1 -4 0
-6 1 0
-6 -5 0
6 -1 5 0
-7 1 0
-7 2 0
7 -1 -2 0
-8 1 0
-8 -5 0
8 -1 5 0
-9 -7 0
-9 -8 0
9 7 8 0
-10 3 0
-10 9 0
10 -3 -9 0
-11 2 0
-11 3 0
11 -2 -3 0
-12 4 0
-12 5 0
12 -4 -5 0
-13 -11 0
-13 -12 0
13 11 12 0
-14 -10 0
-14 13 0
14 10 -13 0
-15 -6 0
-15 14 0
15 6 -14 0
16 -2 15 0
-17 1 0
-17 15 0
17 -1 -15 0
-18 4 0
-18 -9 0
18 -4 9 0
-19 1 0
-19 2 0
19 -1 -2 0
-20 -18 0
-20 -19 0
20 18 19 0
-21 -17 0
-21 20 0
21 17 -20 0
22 -15 -21 0
23 5 -9 0
24 -1 9 0
25 -1 9 0
-26 -24 0
-26 -25 0
-27 -23 0
-27 26 0
28 21 27 0
29 -2 -3 0
30 -1 -3 0
31 3 21 0
32 -1 -21 0
-33 -31 0
-33 -32 0
-34 -30 0
-34 33 0
-35 -29 0
-35 34 0
-36 -28 0
-36 35 0
-37 -22 0
-37 36 0
-38 -16 0
-38 37 0
39 3 38 0
40 21 27 0
41 15 -40 0
42 -1 15 0
43 3 9 0
44 -1 21 0
-45 -43 0
-45 -44 0
-46 -42 0
-46 45 0
47 4 -5 0
48 46 -47 0
49 -3 -5 0
50 15 -49 0
-51 -48 0
-51 -50 0
-52 -41 0
-52 51 0
-53 -39 0
-53 52 0
53 0
